60 30
0 0 21 13
21 0 17 11
38 0 4 11
42 0 14 11
21 11 7 11
56 0 4 8
28 11 14 8
42 11 6 7
0 13 21 5
0 18 18 5
56 8 3 5
42 18 18 5
48 11 4 5
28 19 14 5
0 23 14 5
21 22 7 5
52 11 3 4
42 23 18 4
14 23 5 4
28 24 7 4
56 13 4 3
42 27 17 3
35 24 5 3
14 27 7 3
48 16 6 2
0 28 12 2
